(set-logic ALL)
(declare-const O (Array Int Int))
(define-fun m () Int 300)

(assert (= (select O 0) 1))
(assert (= (select O 1) 2))
(assert (= (select O 2) 1))
(assert (= (select O 3) 1))
(assert (= (select O 4) 2))
(assert (= (select O 5) 1))
(assert (= (select O 6) 1))
(assert (= (select O 7) 1))
(assert (= (select O 8) 1))
(assert (= (select O 9) 2))
(assert (= (select O 10) 2))
(assert (= (select O 11) 2))
(assert (= (select O 12) 1))
(assert (= (select O 13) 2))
(assert (= (select O 14) 1))
(assert (= (select O 15) 2))
(assert (= (select O 16) 1))
(assert (= (select O 17) 1))
(assert (= (select O 18) 2))
(assert (= (select O 19) 1))
(assert (= (select O 20) 1))
(assert (= (select O 21) 1))
(assert (= (select O 22) 1))
(assert (= (select O 23) 1))
(assert (= (select O 24) 1))
(assert (= (select O 25) 1))
(assert (= (select O 26) 1))
(assert (= (select O 27) 1))
(assert (= (select O 28) 1))
(assert (= (select O 29) 2))
(assert (= (select O 30) 1))
(assert (= (select O 31) 1))
(assert (= (select O 32) 1))
(assert (= (select O 33) 1))
(assert (= (select O 34) 1))
(assert (= (select O 35) 2))
(assert (= (select O 36) 1))
(assert (= (select O 37) 2))
(assert (= (select O 38) 1))
(assert (= (select O 39) 1))
(assert (= (select O 40) 1))
(assert (= (select O 41) 1))
(assert (= (select O 42) 1))
(assert (= (select O 43) 1))
(assert (= (select O 44) 2))
(assert (= (select O 45) 1))
(assert (= (select O 46) 1))
(assert (= (select O 47) 1))
(assert (= (select O 48) 1))
(assert (= (select O 49) 1))
(assert (= (select O 50) 1))
(assert (= (select O 51) 1))
(assert (= (select O 52) 1))
(assert (= (select O 53) 1))
(assert (= (select O 54) 2))
(assert (= (select O 55) 1))
(assert (= (select O 56) 2))
(assert (= (select O 57) 1))
(assert (= (select O 58) 1))
(assert (= (select O 59) 2))
(assert (= (select O 60) 1))
(assert (= (select O 61) 1))
(assert (= (select O 62) 2))
(assert (= (select O 63) 2))
(assert (= (select O 64) 1))
(assert (= (select O 65) 1))
(assert (= (select O 66) 1))
(assert (= (select O 67) 1))
(assert (= (select O 68) 2))
(assert (= (select O 69) 1))
(assert (= (select O 70) 1))
(assert (= (select O 71) 1))
(assert (= (select O 72) 1))
(assert (= (select O 73) 1))
(assert (= (select O 74) 2))
(assert (= (select O 75) 1))
(assert (= (select O 76) 2))
(assert (= (select O 77) 1))
(assert (= (select O 78) 1))
(assert (= (select O 79) 1))
(assert (= (select O 80) 2))
(assert (= (select O 81) 1))
(assert (= (select O 82) 1))
(assert (= (select O 83) 1))
(assert (= (select O 84) 1))
(assert (= (select O 85) 1))
(assert (= (select O 86) 1))
(assert (= (select O 87) 2))
(assert (= (select O 88) 1))
(assert (= (select O 89) 2))
(assert (= (select O 90) 1))
(assert (= (select O 91) 1))
(assert (= (select O 92) 2))
(assert (= (select O 93) 1))
(assert (= (select O 94) 1))
(assert (= (select O 95) 2))
(assert (= (select O 96) 1))
(assert (= (select O 97) 1))
(assert (= (select O 98) 1))
(assert (= (select O 99) 1))
(assert (= (select O 100) 1))
(assert (= (select O 101) 1))
(assert (= (select O 102) 1))
(assert (= (select O 103) 1))
(assert (= (select O 104) 1))
(assert (= (select O 105) 2))
(assert (= (select O 106) 2))
(assert (= (select O 107) 1))
(assert (= (select O 108) 1))
(assert (= (select O 109) 1))
(assert (= (select O 110) 1))
(assert (= (select O 111) 1))
(assert (= (select O 112) 1))
(assert (= (select O 113) 2))
(assert (= (select O 114) 1))
(assert (= (select O 115) 1))
(assert (= (select O 116) 2))
(assert (= (select O 117) 1))
(assert (= (select O 118) 2))
(assert (= (select O 119) 1))
(assert (= (select O 120) 2))
(assert (= (select O 121) 1))
(assert (= (select O 122) 1))
(assert (= (select O 123) 1))
(assert (= (select O 124) 2))
(assert (= (select O 125) 1))
(assert (= (select O 126) 1))
(assert (= (select O 127) 2))
(assert (= (select O 128) 1))
(assert (= (select O 129) 2))
(assert (= (select O 130) 1))
(assert (= (select O 131) 2))
(assert (= (select O 132) 1))
(assert (= (select O 133) 1))
(assert (= (select O 134) 1))
(assert (= (select O 135) 1))
(assert (= (select O 136) 1))
(assert (= (select O 137) 2))
(assert (= (select O 138) 1))
(assert (= (select O 139) 1))
(assert (= (select O 140) 1))
(assert (= (select O 141) 1))
(assert (= (select O 142) 1))
(assert (= (select O 143) 2))
(assert (= (select O 144) 1))
(assert (= (select O 145) 1))
(assert (= (select O 146) 1))
(assert (= (select O 147) 1))
(assert (= (select O 148) 1))
(assert (= (select O 149) 1))
(assert (= (select O 150) 1))
(assert (= (select O 151) 1))
(assert (= (select O 152) 1))
(assert (= (select O 153) 1))
(assert (= (select O 154) 1))
(assert (= (select O 155) 2))
(assert (= (select O 156) 1))
(assert (= (select O 157) 1))
(assert (= (select O 158) 1))
(assert (= (select O 159) 1))
(assert (= (select O 160) 1))
(assert (= (select O 161) 1))
(assert (= (select O 162) 1))
(assert (= (select O 163) 1))
(assert (= (select O 164) 1))
(assert (= (select O 165) 1))
(assert (= (select O 166) 2))
(assert (= (select O 167) 1))
(assert (= (select O 168) 1))
(assert (= (select O 169) 2))
(assert (= (select O 170) 2))
(assert (= (select O 171) 1))
(assert (= (select O 172) 2))
(assert (= (select O 173) 1))
(assert (= (select O 174) 2))
(assert (= (select O 175) 2))
(assert (= (select O 176) 1))
(assert (= (select O 177) 1))
(assert (= (select O 178) 1))
(assert (= (select O 179) 1))
(assert (= (select O 180) 2))
(assert (= (select O 181) 2))
(assert (= (select O 182) 2))
(assert (= (select O 183) 1))
(assert (= (select O 184) 2))
(assert (= (select O 185) 1))
(assert (= (select O 186) 2))
(assert (= (select O 187) 1))
(assert (= (select O 188) 2))
(assert (= (select O 189) 1))
(assert (= (select O 190) 2))
(assert (= (select O 191) 2))
(assert (= (select O 192) 2))
(assert (= (select O 193) 1))
(assert (= (select O 194) 2))
(assert (= (select O 195) 2))
(assert (= (select O 196) 1))
(assert (= (select O 197) 2))
(assert (= (select O 198) 1))
(assert (= (select O 199) 2))
(assert (= (select O 200) 1))
(assert (= (select O 201) 1))
(assert (= (select O 202) 1))
(assert (= (select O 203) 2))
(assert (= (select O 204) 1))
(assert (= (select O 205) 1))
(assert (= (select O 206) 1))
(assert (= (select O 207) 1))
(assert (= (select O 208) 1))
(assert (= (select O 209) 1))
(assert (= (select O 210) 1))
(assert (= (select O 211) 1))
(assert (= (select O 212) 2))
(assert (= (select O 213) 2))
(assert (= (select O 214) 1))
(assert (= (select O 215) 1))
(assert (= (select O 216) 1))
(assert (= (select O 217) 1))
(assert (= (select O 218) 1))
(assert (= (select O 219) 1))
(assert (= (select O 220) 1))
(assert (= (select O 221) 1))
(assert (= (select O 222) 1))
(assert (= (select O 223) 1))
(assert (= (select O 224) 1))
(assert (= (select O 225) 1))
(assert (= (select O 226) 2))
(assert (= (select O 227) 2))
(assert (= (select O 228) 2))
(assert (= (select O 229) 1))
(assert (= (select O 230) 2))
(assert (= (select O 231) 1))
(assert (= (select O 232) 1))
(assert (= (select O 233) 1))
(assert (= (select O 234) 1))
(assert (= (select O 235) 2))
(assert (= (select O 236) 2))
(assert (= (select O 237) 2))
(assert (= (select O 238) 1))
(assert (= (select O 239) 1))
(assert (= (select O 240) 2))
(assert (= (select O 241) 1))
(assert (= (select O 242) 2))
(assert (= (select O 243) 1))
(assert (= (select O 244) 1))
(assert (= (select O 245) 1))
(assert (= (select O 246) 1))
(assert (= (select O 247) 1))
(assert (= (select O 248) 1))
(assert (= (select O 249) 2))
(assert (= (select O 250) 1))
(assert (= (select O 251) 1))
(assert (= (select O 252) 2))
(assert (= (select O 253) 1))
(assert (= (select O 254) 1))
(assert (= (select O 255) 1))
(assert (= (select O 256) 1))
(assert (= (select O 257) 2))
(assert (= (select O 258) 1))
(assert (= (select O 259) 1))
(assert (= (select O 260) 1))
(assert (= (select O 261) 1))
(assert (= (select O 262) 1))
(assert (= (select O 263) 1))
(assert (= (select O 264) 1))
(assert (= (select O 265) 2))
(assert (= (select O 266) 1))
(assert (= (select O 267) 1))
(assert (= (select O 268) 2))
(assert (= (select O 269) 1))
(assert (= (select O 270) 1))
(assert (= (select O 271) 1))
(assert (= (select O 272) 1))
(assert (= (select O 273) 2))
(assert (= (select O 274) 2))
(assert (= (select O 275) 1))
(assert (= (select O 276) 1))
(assert (= (select O 277) 1))
(assert (= (select O 278) 2))
(assert (= (select O 279) 1))
(assert (= (select O 280) 1))
(assert (= (select O 281) 1))
(assert (= (select O 282) 1))
(assert (= (select O 283) 1))
(assert (= (select O 284) 1))
(assert (= (select O 285) 1))
(assert (= (select O 286) 1))
(assert (= (select O 287) 1))
(assert (= (select O 288) 1))
(assert (= (select O 289) 2))
(assert (= (select O 290) 1))
(assert (= (select O 291) 2))
(assert (= (select O 292) 1))
(assert (= (select O 293) 1))
(assert (= (select O 294) 1))
(assert (= (select O 295) 2))
(assert (= (select O 296) 1))
(assert (= (select O 297) 1))
(assert (= (select O 298) 1))
(assert (= (select O 299) 1))
; ======================================
; Global balancedness (loop-like encoding)
; m = 300, l = 2, B = 2, threshold = 75
; ======================================

(define-fun threshold () Int 75)

(define-fun count_label_1 () Int
  (+
    (ite (= (select O 0) 1) 1 0)
    (ite (= (select O 1) 1) 1 0)
    (ite (= (select O 2) 1) 1 0)
    (ite (= (select O 3) 1) 1 0)
    (ite (= (select O 4) 1) 1 0)
    (ite (= (select O 5) 1) 1 0)
    (ite (= (select O 6) 1) 1 0)
    (ite (= (select O 7) 1) 1 0)
    (ite (= (select O 8) 1) 1 0)
    (ite (= (select O 9) 1) 1 0)
    (ite (= (select O 10) 1) 1 0)
    (ite (= (select O 11) 1) 1 0)
    (ite (= (select O 12) 1) 1 0)
    (ite (= (select O 13) 1) 1 0)
    (ite (= (select O 14) 1) 1 0)
    (ite (= (select O 15) 1) 1 0)
    (ite (= (select O 16) 1) 1 0)
    (ite (= (select O 17) 1) 1 0)
    (ite (= (select O 18) 1) 1 0)
    (ite (= (select O 19) 1) 1 0)
    (ite (= (select O 20) 1) 1 0)
    (ite (= (select O 21) 1) 1 0)
    (ite (= (select O 22) 1) 1 0)
    (ite (= (select O 23) 1) 1 0)
    (ite (= (select O 24) 1) 1 0)
    (ite (= (select O 25) 1) 1 0)
    (ite (= (select O 26) 1) 1 0)
    (ite (= (select O 27) 1) 1 0)
    (ite (= (select O 28) 1) 1 0)
    (ite (= (select O 29) 1) 1 0)
    (ite (= (select O 30) 1) 1 0)
    (ite (= (select O 31) 1) 1 0)
    (ite (= (select O 32) 1) 1 0)
    (ite (= (select O 33) 1) 1 0)
    (ite (= (select O 34) 1) 1 0)
    (ite (= (select O 35) 1) 1 0)
    (ite (= (select O 36) 1) 1 0)
    (ite (= (select O 37) 1) 1 0)
    (ite (= (select O 38) 1) 1 0)
    (ite (= (select O 39) 1) 1 0)
    (ite (= (select O 40) 1) 1 0)
    (ite (= (select O 41) 1) 1 0)
    (ite (= (select O 42) 1) 1 0)
    (ite (= (select O 43) 1) 1 0)
    (ite (= (select O 44) 1) 1 0)
    (ite (= (select O 45) 1) 1 0)
    (ite (= (select O 46) 1) 1 0)
    (ite (= (select O 47) 1) 1 0)
    (ite (= (select O 48) 1) 1 0)
    (ite (= (select O 49) 1) 1 0)
    (ite (= (select O 50) 1) 1 0)
    (ite (= (select O 51) 1) 1 0)
    (ite (= (select O 52) 1) 1 0)
    (ite (= (select O 53) 1) 1 0)
    (ite (= (select O 54) 1) 1 0)
    (ite (= (select O 55) 1) 1 0)
    (ite (= (select O 56) 1) 1 0)
    (ite (= (select O 57) 1) 1 0)
    (ite (= (select O 58) 1) 1 0)
    (ite (= (select O 59) 1) 1 0)
    (ite (= (select O 60) 1) 1 0)
    (ite (= (select O 61) 1) 1 0)
    (ite (= (select O 62) 1) 1 0)
    (ite (= (select O 63) 1) 1 0)
    (ite (= (select O 64) 1) 1 0)
    (ite (= (select O 65) 1) 1 0)
    (ite (= (select O 66) 1) 1 0)
    (ite (= (select O 67) 1) 1 0)
    (ite (= (select O 68) 1) 1 0)
    (ite (= (select O 69) 1) 1 0)
    (ite (= (select O 70) 1) 1 0)
    (ite (= (select O 71) 1) 1 0)
    (ite (= (select O 72) 1) 1 0)
    (ite (= (select O 73) 1) 1 0)
    (ite (= (select O 74) 1) 1 0)
    (ite (= (select O 75) 1) 1 0)
    (ite (= (select O 76) 1) 1 0)
    (ite (= (select O 77) 1) 1 0)
    (ite (= (select O 78) 1) 1 0)
    (ite (= (select O 79) 1) 1 0)
    (ite (= (select O 80) 1) 1 0)
    (ite (= (select O 81) 1) 1 0)
    (ite (= (select O 82) 1) 1 0)
    (ite (= (select O 83) 1) 1 0)
    (ite (= (select O 84) 1) 1 0)
    (ite (= (select O 85) 1) 1 0)
    (ite (= (select O 86) 1) 1 0)
    (ite (= (select O 87) 1) 1 0)
    (ite (= (select O 88) 1) 1 0)
    (ite (= (select O 89) 1) 1 0)
    (ite (= (select O 90) 1) 1 0)
    (ite (= (select O 91) 1) 1 0)
    (ite (= (select O 92) 1) 1 0)
    (ite (= (select O 93) 1) 1 0)
    (ite (= (select O 94) 1) 1 0)
    (ite (= (select O 95) 1) 1 0)
    (ite (= (select O 96) 1) 1 0)
    (ite (= (select O 97) 1) 1 0)
    (ite (= (select O 98) 1) 1 0)
    (ite (= (select O 99) 1) 1 0)
    (ite (= (select O 100) 1) 1 0)
    (ite (= (select O 101) 1) 1 0)
    (ite (= (select O 102) 1) 1 0)
    (ite (= (select O 103) 1) 1 0)
    (ite (= (select O 104) 1) 1 0)
    (ite (= (select O 105) 1) 1 0)
    (ite (= (select O 106) 1) 1 0)
    (ite (= (select O 107) 1) 1 0)
    (ite (= (select O 108) 1) 1 0)
    (ite (= (select O 109) 1) 1 0)
    (ite (= (select O 110) 1) 1 0)
    (ite (= (select O 111) 1) 1 0)
    (ite (= (select O 112) 1) 1 0)
    (ite (= (select O 113) 1) 1 0)
    (ite (= (select O 114) 1) 1 0)
    (ite (= (select O 115) 1) 1 0)
    (ite (= (select O 116) 1) 1 0)
    (ite (= (select O 117) 1) 1 0)
    (ite (= (select O 118) 1) 1 0)
    (ite (= (select O 119) 1) 1 0)
    (ite (= (select O 120) 1) 1 0)
    (ite (= (select O 121) 1) 1 0)
    (ite (= (select O 122) 1) 1 0)
    (ite (= (select O 123) 1) 1 0)
    (ite (= (select O 124) 1) 1 0)
    (ite (= (select O 125) 1) 1 0)
    (ite (= (select O 126) 1) 1 0)
    (ite (= (select O 127) 1) 1 0)
    (ite (= (select O 128) 1) 1 0)
    (ite (= (select O 129) 1) 1 0)
    (ite (= (select O 130) 1) 1 0)
    (ite (= (select O 131) 1) 1 0)
    (ite (= (select O 132) 1) 1 0)
    (ite (= (select O 133) 1) 1 0)
    (ite (= (select O 134) 1) 1 0)
    (ite (= (select O 135) 1) 1 0)
    (ite (= (select O 136) 1) 1 0)
    (ite (= (select O 137) 1) 1 0)
    (ite (= (select O 138) 1) 1 0)
    (ite (= (select O 139) 1) 1 0)
    (ite (= (select O 140) 1) 1 0)
    (ite (= (select O 141) 1) 1 0)
    (ite (= (select O 142) 1) 1 0)
    (ite (= (select O 143) 1) 1 0)
    (ite (= (select O 144) 1) 1 0)
    (ite (= (select O 145) 1) 1 0)
    (ite (= (select O 146) 1) 1 0)
    (ite (= (select O 147) 1) 1 0)
    (ite (= (select O 148) 1) 1 0)
    (ite (= (select O 149) 1) 1 0)
    (ite (= (select O 150) 1) 1 0)
    (ite (= (select O 151) 1) 1 0)
    (ite (= (select O 152) 1) 1 0)
    (ite (= (select O 153) 1) 1 0)
    (ite (= (select O 154) 1) 1 0)
    (ite (= (select O 155) 1) 1 0)
    (ite (= (select O 156) 1) 1 0)
    (ite (= (select O 157) 1) 1 0)
    (ite (= (select O 158) 1) 1 0)
    (ite (= (select O 159) 1) 1 0)
    (ite (= (select O 160) 1) 1 0)
    (ite (= (select O 161) 1) 1 0)
    (ite (= (select O 162) 1) 1 0)
    (ite (= (select O 163) 1) 1 0)
    (ite (= (select O 164) 1) 1 0)
    (ite (= (select O 165) 1) 1 0)
    (ite (= (select O 166) 1) 1 0)
    (ite (= (select O 167) 1) 1 0)
    (ite (= (select O 168) 1) 1 0)
    (ite (= (select O 169) 1) 1 0)
    (ite (= (select O 170) 1) 1 0)
    (ite (= (select O 171) 1) 1 0)
    (ite (= (select O 172) 1) 1 0)
    (ite (= (select O 173) 1) 1 0)
    (ite (= (select O 174) 1) 1 0)
    (ite (= (select O 175) 1) 1 0)
    (ite (= (select O 176) 1) 1 0)
    (ite (= (select O 177) 1) 1 0)
    (ite (= (select O 178) 1) 1 0)
    (ite (= (select O 179) 1) 1 0)
    (ite (= (select O 180) 1) 1 0)
    (ite (= (select O 181) 1) 1 0)
    (ite (= (select O 182) 1) 1 0)
    (ite (= (select O 183) 1) 1 0)
    (ite (= (select O 184) 1) 1 0)
    (ite (= (select O 185) 1) 1 0)
    (ite (= (select O 186) 1) 1 0)
    (ite (= (select O 187) 1) 1 0)
    (ite (= (select O 188) 1) 1 0)
    (ite (= (select O 189) 1) 1 0)
    (ite (= (select O 190) 1) 1 0)
    (ite (= (select O 191) 1) 1 0)
    (ite (= (select O 192) 1) 1 0)
    (ite (= (select O 193) 1) 1 0)
    (ite (= (select O 194) 1) 1 0)
    (ite (= (select O 195) 1) 1 0)
    (ite (= (select O 196) 1) 1 0)
    (ite (= (select O 197) 1) 1 0)
    (ite (= (select O 198) 1) 1 0)
    (ite (= (select O 199) 1) 1 0)
    (ite (= (select O 200) 1) 1 0)
    (ite (= (select O 201) 1) 1 0)
    (ite (= (select O 202) 1) 1 0)
    (ite (= (select O 203) 1) 1 0)
    (ite (= (select O 204) 1) 1 0)
    (ite (= (select O 205) 1) 1 0)
    (ite (= (select O 206) 1) 1 0)
    (ite (= (select O 207) 1) 1 0)
    (ite (= (select O 208) 1) 1 0)
    (ite (= (select O 209) 1) 1 0)
    (ite (= (select O 210) 1) 1 0)
    (ite (= (select O 211) 1) 1 0)
    (ite (= (select O 212) 1) 1 0)
    (ite (= (select O 213) 1) 1 0)
    (ite (= (select O 214) 1) 1 0)
    (ite (= (select O 215) 1) 1 0)
    (ite (= (select O 216) 1) 1 0)
    (ite (= (select O 217) 1) 1 0)
    (ite (= (select O 218) 1) 1 0)
    (ite (= (select O 219) 1) 1 0)
    (ite (= (select O 220) 1) 1 0)
    (ite (= (select O 221) 1) 1 0)
    (ite (= (select O 222) 1) 1 0)
    (ite (= (select O 223) 1) 1 0)
    (ite (= (select O 224) 1) 1 0)
    (ite (= (select O 225) 1) 1 0)
    (ite (= (select O 226) 1) 1 0)
    (ite (= (select O 227) 1) 1 0)
    (ite (= (select O 228) 1) 1 0)
    (ite (= (select O 229) 1) 1 0)
    (ite (= (select O 230) 1) 1 0)
    (ite (= (select O 231) 1) 1 0)
    (ite (= (select O 232) 1) 1 0)
    (ite (= (select O 233) 1) 1 0)
    (ite (= (select O 234) 1) 1 0)
    (ite (= (select O 235) 1) 1 0)
    (ite (= (select O 236) 1) 1 0)
    (ite (= (select O 237) 1) 1 0)
    (ite (= (select O 238) 1) 1 0)
    (ite (= (select O 239) 1) 1 0)
    (ite (= (select O 240) 1) 1 0)
    (ite (= (select O 241) 1) 1 0)
    (ite (= (select O 242) 1) 1 0)
    (ite (= (select O 243) 1) 1 0)
    (ite (= (select O 244) 1) 1 0)
    (ite (= (select O 245) 1) 1 0)
    (ite (= (select O 246) 1) 1 0)
    (ite (= (select O 247) 1) 1 0)
    (ite (= (select O 248) 1) 1 0)
    (ite (= (select O 249) 1) 1 0)
    (ite (= (select O 250) 1) 1 0)
    (ite (= (select O 251) 1) 1 0)
    (ite (= (select O 252) 1) 1 0)
    (ite (= (select O 253) 1) 1 0)
    (ite (= (select O 254) 1) 1 0)
    (ite (= (select O 255) 1) 1 0)
    (ite (= (select O 256) 1) 1 0)
    (ite (= (select O 257) 1) 1 0)
    (ite (= (select O 258) 1) 1 0)
    (ite (= (select O 259) 1) 1 0)
    (ite (= (select O 260) 1) 1 0)
    (ite (= (select O 261) 1) 1 0)
    (ite (= (select O 262) 1) 1 0)
    (ite (= (select O 263) 1) 1 0)
    (ite (= (select O 264) 1) 1 0)
    (ite (= (select O 265) 1) 1 0)
    (ite (= (select O 266) 1) 1 0)
    (ite (= (select O 267) 1) 1 0)
    (ite (= (select O 268) 1) 1 0)
    (ite (= (select O 269) 1) 1 0)
    (ite (= (select O 270) 1) 1 0)
    (ite (= (select O 271) 1) 1 0)
    (ite (= (select O 272) 1) 1 0)
    (ite (= (select O 273) 1) 1 0)
    (ite (= (select O 274) 1) 1 0)
    (ite (= (select O 275) 1) 1 0)
    (ite (= (select O 276) 1) 1 0)
    (ite (= (select O 277) 1) 1 0)
    (ite (= (select O 278) 1) 1 0)
    (ite (= (select O 279) 1) 1 0)
    (ite (= (select O 280) 1) 1 0)
    (ite (= (select O 281) 1) 1 0)
    (ite (= (select O 282) 1) 1 0)
    (ite (= (select O 283) 1) 1 0)
    (ite (= (select O 284) 1) 1 0)
    (ite (= (select O 285) 1) 1 0)
    (ite (= (select O 286) 1) 1 0)
    (ite (= (select O 287) 1) 1 0)
    (ite (= (select O 288) 1) 1 0)
    (ite (= (select O 289) 1) 1 0)
    (ite (= (select O 290) 1) 1 0)
    (ite (= (select O 291) 1) 1 0)
    (ite (= (select O 292) 1) 1 0)
    (ite (= (select O 293) 1) 1 0)
    (ite (= (select O 294) 1) 1 0)
    (ite (= (select O 295) 1) 1 0)
    (ite (= (select O 296) 1) 1 0)
    (ite (= (select O 297) 1) 1 0)
    (ite (= (select O 298) 1) 1 0)
    (ite (= (select O 299) 1) 1 0)
  )
)

(define-fun count_label_2 () Int
  (+
    (ite (= (select O 0) 2) 1 0)
    (ite (= (select O 1) 2) 1 0)
    (ite (= (select O 2) 2) 1 0)
    (ite (= (select O 3) 2) 1 0)
    (ite (= (select O 4) 2) 1 0)
    (ite (= (select O 5) 2) 1 0)
    (ite (= (select O 6) 2) 1 0)
    (ite (= (select O 7) 2) 1 0)
    (ite (= (select O 8) 2) 1 0)
    (ite (= (select O 9) 2) 1 0)
    (ite (= (select O 10) 2) 1 0)
    (ite (= (select O 11) 2) 1 0)
    (ite (= (select O 12) 2) 1 0)
    (ite (= (select O 13) 2) 1 0)
    (ite (= (select O 14) 2) 1 0)
    (ite (= (select O 15) 2) 1 0)
    (ite (= (select O 16) 2) 1 0)
    (ite (= (select O 17) 2) 1 0)
    (ite (= (select O 18) 2) 1 0)
    (ite (= (select O 19) 2) 1 0)
    (ite (= (select O 20) 2) 1 0)
    (ite (= (select O 21) 2) 1 0)
    (ite (= (select O 22) 2) 1 0)
    (ite (= (select O 23) 2) 1 0)
    (ite (= (select O 24) 2) 1 0)
    (ite (= (select O 25) 2) 1 0)
    (ite (= (select O 26) 2) 1 0)
    (ite (= (select O 27) 2) 1 0)
    (ite (= (select O 28) 2) 1 0)
    (ite (= (select O 29) 2) 1 0)
    (ite (= (select O 30) 2) 1 0)
    (ite (= (select O 31) 2) 1 0)
    (ite (= (select O 32) 2) 1 0)
    (ite (= (select O 33) 2) 1 0)
    (ite (= (select O 34) 2) 1 0)
    (ite (= (select O 35) 2) 1 0)
    (ite (= (select O 36) 2) 1 0)
    (ite (= (select O 37) 2) 1 0)
    (ite (= (select O 38) 2) 1 0)
    (ite (= (select O 39) 2) 1 0)
    (ite (= (select O 40) 2) 1 0)
    (ite (= (select O 41) 2) 1 0)
    (ite (= (select O 42) 2) 1 0)
    (ite (= (select O 43) 2) 1 0)
    (ite (= (select O 44) 2) 1 0)
    (ite (= (select O 45) 2) 1 0)
    (ite (= (select O 46) 2) 1 0)
    (ite (= (select O 47) 2) 1 0)
    (ite (= (select O 48) 2) 1 0)
    (ite (= (select O 49) 2) 1 0)
    (ite (= (select O 50) 2) 1 0)
    (ite (= (select O 51) 2) 1 0)
    (ite (= (select O 52) 2) 1 0)
    (ite (= (select O 53) 2) 1 0)
    (ite (= (select O 54) 2) 1 0)
    (ite (= (select O 55) 2) 1 0)
    (ite (= (select O 56) 2) 1 0)
    (ite (= (select O 57) 2) 1 0)
    (ite (= (select O 58) 2) 1 0)
    (ite (= (select O 59) 2) 1 0)
    (ite (= (select O 60) 2) 1 0)
    (ite (= (select O 61) 2) 1 0)
    (ite (= (select O 62) 2) 1 0)
    (ite (= (select O 63) 2) 1 0)
    (ite (= (select O 64) 2) 1 0)
    (ite (= (select O 65) 2) 1 0)
    (ite (= (select O 66) 2) 1 0)
    (ite (= (select O 67) 2) 1 0)
    (ite (= (select O 68) 2) 1 0)
    (ite (= (select O 69) 2) 1 0)
    (ite (= (select O 70) 2) 1 0)
    (ite (= (select O 71) 2) 1 0)
    (ite (= (select O 72) 2) 1 0)
    (ite (= (select O 73) 2) 1 0)
    (ite (= (select O 74) 2) 1 0)
    (ite (= (select O 75) 2) 1 0)
    (ite (= (select O 76) 2) 1 0)
    (ite (= (select O 77) 2) 1 0)
    (ite (= (select O 78) 2) 1 0)
    (ite (= (select O 79) 2) 1 0)
    (ite (= (select O 80) 2) 1 0)
    (ite (= (select O 81) 2) 1 0)
    (ite (= (select O 82) 2) 1 0)
    (ite (= (select O 83) 2) 1 0)
    (ite (= (select O 84) 2) 1 0)
    (ite (= (select O 85) 2) 1 0)
    (ite (= (select O 86) 2) 1 0)
    (ite (= (select O 87) 2) 1 0)
    (ite (= (select O 88) 2) 1 0)
    (ite (= (select O 89) 2) 1 0)
    (ite (= (select O 90) 2) 1 0)
    (ite (= (select O 91) 2) 1 0)
    (ite (= (select O 92) 2) 1 0)
    (ite (= (select O 93) 2) 1 0)
    (ite (= (select O 94) 2) 1 0)
    (ite (= (select O 95) 2) 1 0)
    (ite (= (select O 96) 2) 1 0)
    (ite (= (select O 97) 2) 1 0)
    (ite (= (select O 98) 2) 1 0)
    (ite (= (select O 99) 2) 1 0)
    (ite (= (select O 100) 2) 1 0)
    (ite (= (select O 101) 2) 1 0)
    (ite (= (select O 102) 2) 1 0)
    (ite (= (select O 103) 2) 1 0)
    (ite (= (select O 104) 2) 1 0)
    (ite (= (select O 105) 2) 1 0)
    (ite (= (select O 106) 2) 1 0)
    (ite (= (select O 107) 2) 1 0)
    (ite (= (select O 108) 2) 1 0)
    (ite (= (select O 109) 2) 1 0)
    (ite (= (select O 110) 2) 1 0)
    (ite (= (select O 111) 2) 1 0)
    (ite (= (select O 112) 2) 1 0)
    (ite (= (select O 113) 2) 1 0)
    (ite (= (select O 114) 2) 1 0)
    (ite (= (select O 115) 2) 1 0)
    (ite (= (select O 116) 2) 1 0)
    (ite (= (select O 117) 2) 1 0)
    (ite (= (select O 118) 2) 1 0)
    (ite (= (select O 119) 2) 1 0)
    (ite (= (select O 120) 2) 1 0)
    (ite (= (select O 121) 2) 1 0)
    (ite (= (select O 122) 2) 1 0)
    (ite (= (select O 123) 2) 1 0)
    (ite (= (select O 124) 2) 1 0)
    (ite (= (select O 125) 2) 1 0)
    (ite (= (select O 126) 2) 1 0)
    (ite (= (select O 127) 2) 1 0)
    (ite (= (select O 128) 2) 1 0)
    (ite (= (select O 129) 2) 1 0)
    (ite (= (select O 130) 2) 1 0)
    (ite (= (select O 131) 2) 1 0)
    (ite (= (select O 132) 2) 1 0)
    (ite (= (select O 133) 2) 1 0)
    (ite (= (select O 134) 2) 1 0)
    (ite (= (select O 135) 2) 1 0)
    (ite (= (select O 136) 2) 1 0)
    (ite (= (select O 137) 2) 1 0)
    (ite (= (select O 138) 2) 1 0)
    (ite (= (select O 139) 2) 1 0)
    (ite (= (select O 140) 2) 1 0)
    (ite (= (select O 141) 2) 1 0)
    (ite (= (select O 142) 2) 1 0)
    (ite (= (select O 143) 2) 1 0)
    (ite (= (select O 144) 2) 1 0)
    (ite (= (select O 145) 2) 1 0)
    (ite (= (select O 146) 2) 1 0)
    (ite (= (select O 147) 2) 1 0)
    (ite (= (select O 148) 2) 1 0)
    (ite (= (select O 149) 2) 1 0)
    (ite (= (select O 150) 2) 1 0)
    (ite (= (select O 151) 2) 1 0)
    (ite (= (select O 152) 2) 1 0)
    (ite (= (select O 153) 2) 1 0)
    (ite (= (select O 154) 2) 1 0)
    (ite (= (select O 155) 2) 1 0)
    (ite (= (select O 156) 2) 1 0)
    (ite (= (select O 157) 2) 1 0)
    (ite (= (select O 158) 2) 1 0)
    (ite (= (select O 159) 2) 1 0)
    (ite (= (select O 160) 2) 1 0)
    (ite (= (select O 161) 2) 1 0)
    (ite (= (select O 162) 2) 1 0)
    (ite (= (select O 163) 2) 1 0)
    (ite (= (select O 164) 2) 1 0)
    (ite (= (select O 165) 2) 1 0)
    (ite (= (select O 166) 2) 1 0)
    (ite (= (select O 167) 2) 1 0)
    (ite (= (select O 168) 2) 1 0)
    (ite (= (select O 169) 2) 1 0)
    (ite (= (select O 170) 2) 1 0)
    (ite (= (select O 171) 2) 1 0)
    (ite (= (select O 172) 2) 1 0)
    (ite (= (select O 173) 2) 1 0)
    (ite (= (select O 174) 2) 1 0)
    (ite (= (select O 175) 2) 1 0)
    (ite (= (select O 176) 2) 1 0)
    (ite (= (select O 177) 2) 1 0)
    (ite (= (select O 178) 2) 1 0)
    (ite (= (select O 179) 2) 1 0)
    (ite (= (select O 180) 2) 1 0)
    (ite (= (select O 181) 2) 1 0)
    (ite (= (select O 182) 2) 1 0)
    (ite (= (select O 183) 2) 1 0)
    (ite (= (select O 184) 2) 1 0)
    (ite (= (select O 185) 2) 1 0)
    (ite (= (select O 186) 2) 1 0)
    (ite (= (select O 187) 2) 1 0)
    (ite (= (select O 188) 2) 1 0)
    (ite (= (select O 189) 2) 1 0)
    (ite (= (select O 190) 2) 1 0)
    (ite (= (select O 191) 2) 1 0)
    (ite (= (select O 192) 2) 1 0)
    (ite (= (select O 193) 2) 1 0)
    (ite (= (select O 194) 2) 1 0)
    (ite (= (select O 195) 2) 1 0)
    (ite (= (select O 196) 2) 1 0)
    (ite (= (select O 197) 2) 1 0)
    (ite (= (select O 198) 2) 1 0)
    (ite (= (select O 199) 2) 1 0)
    (ite (= (select O 200) 2) 1 0)
    (ite (= (select O 201) 2) 1 0)
    (ite (= (select O 202) 2) 1 0)
    (ite (= (select O 203) 2) 1 0)
    (ite (= (select O 204) 2) 1 0)
    (ite (= (select O 205) 2) 1 0)
    (ite (= (select O 206) 2) 1 0)
    (ite (= (select O 207) 2) 1 0)
    (ite (= (select O 208) 2) 1 0)
    (ite (= (select O 209) 2) 1 0)
    (ite (= (select O 210) 2) 1 0)
    (ite (= (select O 211) 2) 1 0)
    (ite (= (select O 212) 2) 1 0)
    (ite (= (select O 213) 2) 1 0)
    (ite (= (select O 214) 2) 1 0)
    (ite (= (select O 215) 2) 1 0)
    (ite (= (select O 216) 2) 1 0)
    (ite (= (select O 217) 2) 1 0)
    (ite (= (select O 218) 2) 1 0)
    (ite (= (select O 219) 2) 1 0)
    (ite (= (select O 220) 2) 1 0)
    (ite (= (select O 221) 2) 1 0)
    (ite (= (select O 222) 2) 1 0)
    (ite (= (select O 223) 2) 1 0)
    (ite (= (select O 224) 2) 1 0)
    (ite (= (select O 225) 2) 1 0)
    (ite (= (select O 226) 2) 1 0)
    (ite (= (select O 227) 2) 1 0)
    (ite (= (select O 228) 2) 1 0)
    (ite (= (select O 229) 2) 1 0)
    (ite (= (select O 230) 2) 1 0)
    (ite (= (select O 231) 2) 1 0)
    (ite (= (select O 232) 2) 1 0)
    (ite (= (select O 233) 2) 1 0)
    (ite (= (select O 234) 2) 1 0)
    (ite (= (select O 235) 2) 1 0)
    (ite (= (select O 236) 2) 1 0)
    (ite (= (select O 237) 2) 1 0)
    (ite (= (select O 238) 2) 1 0)
    (ite (= (select O 239) 2) 1 0)
    (ite (= (select O 240) 2) 1 0)
    (ite (= (select O 241) 2) 1 0)
    (ite (= (select O 242) 2) 1 0)
    (ite (= (select O 243) 2) 1 0)
    (ite (= (select O 244) 2) 1 0)
    (ite (= (select O 245) 2) 1 0)
    (ite (= (select O 246) 2) 1 0)
    (ite (= (select O 247) 2) 1 0)
    (ite (= (select O 248) 2) 1 0)
    (ite (= (select O 249) 2) 1 0)
    (ite (= (select O 250) 2) 1 0)
    (ite (= (select O 251) 2) 1 0)
    (ite (= (select O 252) 2) 1 0)
    (ite (= (select O 253) 2) 1 0)
    (ite (= (select O 254) 2) 1 0)
    (ite (= (select O 255) 2) 1 0)
    (ite (= (select O 256) 2) 1 0)
    (ite (= (select O 257) 2) 1 0)
    (ite (= (select O 258) 2) 1 0)
    (ite (= (select O 259) 2) 1 0)
    (ite (= (select O 260) 2) 1 0)
    (ite (= (select O 261) 2) 1 0)
    (ite (= (select O 262) 2) 1 0)
    (ite (= (select O 263) 2) 1 0)
    (ite (= (select O 264) 2) 1 0)
    (ite (= (select O 265) 2) 1 0)
    (ite (= (select O 266) 2) 1 0)
    (ite (= (select O 267) 2) 1 0)
    (ite (= (select O 268) 2) 1 0)
    (ite (= (select O 269) 2) 1 0)
    (ite (= (select O 270) 2) 1 0)
    (ite (= (select O 271) 2) 1 0)
    (ite (= (select O 272) 2) 1 0)
    (ite (= (select O 273) 2) 1 0)
    (ite (= (select O 274) 2) 1 0)
    (ite (= (select O 275) 2) 1 0)
    (ite (= (select O 276) 2) 1 0)
    (ite (= (select O 277) 2) 1 0)
    (ite (= (select O 278) 2) 1 0)
    (ite (= (select O 279) 2) 1 0)
    (ite (= (select O 280) 2) 1 0)
    (ite (= (select O 281) 2) 1 0)
    (ite (= (select O 282) 2) 1 0)
    (ite (= (select O 283) 2) 1 0)
    (ite (= (select O 284) 2) 1 0)
    (ite (= (select O 285) 2) 1 0)
    (ite (= (select O 286) 2) 1 0)
    (ite (= (select O 287) 2) 1 0)
    (ite (= (select O 288) 2) 1 0)
    (ite (= (select O 289) 2) 1 0)
    (ite (= (select O 290) 2) 1 0)
    (ite (= (select O 291) 2) 1 0)
    (ite (= (select O 292) 2) 1 0)
    (ite (= (select O 293) 2) 1 0)
    (ite (= (select O 294) 2) 1 0)
    (ite (= (select O 295) 2) 1 0)
    (ite (= (select O 296) 2) 1 0)
    (ite (= (select O 297) 2) 1 0)
    (ite (= (select O 298) 2) 1 0)
    (ite (= (select O 299) 2) 1 0)
  )
)

(assert
  (and
    (>= count_label_1 threshold)
    (>= count_label_2 threshold)
  )
)

(check-sat)
